Ordonnancement/plne/source/petit_instance/7job/7job_18.dat
data;
param nombreJob := 7;
param nombreRessource := 3;
param duree := 1 1 2 5 3 4 4 1 5 2 6 2 7 5;
param capaciteRessource := 1 6 2 8 3 18;
param besoinRessource : 1 2 3 :=
                    1   1 6 9
                    2   3 3 6
                    3   4 5 8
                    4   2 8 1
                    5   3 2 7
                    6   3 3 2
                    7   2 4 9;
end;

