Ordonnancement/plne/source/glpk_resultat/7job/7job_18.sol
Problem:    glpsolRcpsp
Rows:       334
Columns:    141 (140 integer, 140 binary)
Non-zeros:  2290
Status:     INTEGER OPTIMAL
Objective:  obj = 13 (MINimum)

   No.   Row name        Activity     Lower bound   Upper bound
------ ------------    ------------- ------------- -------------
     1 periode[1]                  1             1             = 
     2 periode[2]                  5             5             = 
     3 periode[3]                  4             4             = 
     4 periode[4]                  1             1             = 
     5 periode[5]                  2             2             = 
     6 periode[6]                  2             2             = 
     7 periode[7]                  5             5             = 
     8 complet[1,1]                1                           1 
     9 complet[1,2]                1                           1 
    10 complet[1,3]                1                           1 
    11 complet[1,4]                1                           1 
    12 complet[1,5]                1                           1 
    13 complet[1,6]                1                           1 
    14 complet[1,7]                1                           1 
    15 complet[1,8]                1                           1 
    16 complet[1,9]                1                           1 
    17 complet[1,10]
                                   1                           1 
    18 complet[1,11]
                                   1                           1 
    19 complet[1,12]
                                  -1                           1 
    20 complet[1,13]
                                   1                           1 
    21 complet[1,14]
                                   0                           1 
    22 complet[1,15]
                                   0                           1 
    23 complet[1,16]
                                   0                           1 
    24 complet[1,17]
                                   0                           1 
    25 complet[1,18]
                                   0                           1 
    26 complet[2,1]               -1                           5 
    27 complet[2,2]                3                           5 
    28 complet[2,3]                2                           5 
    29 complet[2,4]                1                           5 
    30 complet[2,5]                0                           5 
    31 complet[2,6]                5                           5 
    32 complet[2,7]                0                           5 
    33 complet[2,8]                0                           5 
    34 complet[2,9]                0                           5 
    35 complet[2,10]
                                   0                           5 
    36 complet[2,11]
                                   0                           5 
    37 complet[2,12]
                                   0                           5 
    38 complet[2,13]
                                   0                           5 
    39 complet[2,14]
                                   0                           5 
    40 complet[2,15]
                                   0                           5 
    41 complet[2,16]
                                   0                           5 
    42 complet[2,17]
                                   0                           5 
    43 complet[2,18]
                                   0                           5 
    44 complet[3,1]                4                           4 
    45 complet[3,2]                4                           4 
    46 complet[3,3]                4                           4 
    47 complet[3,4]                4                           4 
    48 complet[3,5]                4                           4 
    49 complet[3,6]                4                           4 
    50 complet[3,7]                4                           4 
    51 complet[3,8]               -1                           4 
    52 complet[3,9]                2                           4 
    53 complet[3,10]
                                   1                           4 
    54 complet[3,11]
                                   0                           4 
    55 complet[3,12]
                                   4                           4 
    56 complet[3,13]
                                   0                           4 
    57 complet[3,14]
                                   0                           4 
    58 complet[3,15]
                                   0                           4 
    59 complet[3,16]
                                   0                           4 
    60 complet[3,17]
                                   0                           4 
    61 complet[3,18]
                                   0                           4 
    62 complet[4,1]                1                           1 
    63 complet[4,2]                0                           1 
    64 complet[4,3]                0                           1 
    65 complet[4,4]                0                           1 
    66 complet[4,5]                0                           1 
    67 complet[4,6]                0                           1 
    68 complet[4,7]                0                           1 
    69 complet[4,8]                0                           1 
    70 complet[4,9]                0                           1 
    71 complet[4,10]
                                   0                           1 
    72 complet[4,11]
                                   0                           1 
    73 complet[4,12]
                                   0                           1 
    74 complet[4,13]
                                   0                           1 
    75 complet[4,14]
                                   0                           1 
    76 complet[4,15]
                                   0                           1 
    77 complet[4,16]
                                   0                           1 
    78 complet[4,17]
                                   0                           1 
    79 complet[4,18]
                                   0                           1 
    80 complet[5,1]                2                           2 
    81 complet[5,2]                2                           2 
    82 complet[5,3]                2                           2 
    83 complet[5,4]                2                           2 
    84 complet[5,5]                2                           2 
    85 complet[5,6]               -1                           2 
    86 complet[5,7]                0                           2 
    87 complet[5,8]                2                           2 
    88 complet[5,9]                0                           2 
    89 complet[5,10]
                                   0                           2 
    90 complet[5,11]
                                   0                           2 
    91 complet[5,12]
                                   0                           2 
    92 complet[5,13]
                                   0                           2 
    93 complet[5,14]
                                   0                           2 
    94 complet[5,15]
                                   0                           2 
    95 complet[5,16]
                                   0                           2 
    96 complet[5,17]
                                   0                           2 
    97 complet[5,18]
                                   0                           2 
    98 complet[6,1]               -1                           2 
    99 complet[6,2]                0                           2 
   100 complet[6,3]                2                           2 
   101 complet[6,4]                0                           2 
   102 complet[6,5]                0                           2 
   103 complet[6,6]                0                           2 
   104 complet[6,7]                0                           2 
   105 complet[6,8]                0                           2 
   106 complet[6,9]                0                           2 
   107 complet[6,10]
                                   0                           2 
   108 complet[6,11]
                                   0                           2 
   109 complet[6,12]
                                   0                           2 
   110 complet[6,13]
                                   0                           2 
   111 complet[6,14]
                                   0                           2 
   112 complet[6,15]
                                   0                           2 
   113 complet[6,16]
                                   0                           2 
   114 complet[6,17]
                                   0                           2 
   115 complet[6,18]
                                   0                           2 
   116 complet[7,1]                5                           5 
   117 complet[7,2]                5                           5 
   118 complet[7,3]               -1                           5 
   119 complet[7,4]                3                           5 
   120 complet[7,5]                2                           5 
   121 complet[7,6]                1                           5 
   122 complet[7,7]                0                           5 
   123 complet[7,8]                5                           5 
   124 complet[7,9]                0                           5 
   125 complet[7,10]
                                   0                           5 
   126 complet[7,11]
                                   0                           5 
   127 complet[7,12]
                                   0                           5 
   128 complet[7,13]
                                   0                           5 
   129 complet[7,14]
                                   0                           5 
   130 complet[7,15]
                                   0                           5 
   131 complet[7,16]
                                   0                           5 
   132 complet[7,17]
                                   0                           5 
   133 complet[7,18]
                                   0                           5 
   134 cmax[1,1]                  13            -0               
   135 cmax[1,2]                  13            -0               
   136 cmax[1,3]                  13            -0               
   137 cmax[1,4]                  13            -0               
   138 cmax[1,5]                  13            -0               
   139 cmax[1,6]                  13            -0               
   140 cmax[1,7]                  13            -0               
   141 cmax[1,8]                  13            -0               
   142 cmax[1,9]                  13            -0               
   143 cmax[1,10]                 13            -0               
   144 cmax[1,11]                 13            -0               
   145 cmax[1,12]                 13            -0               
   146 cmax[1,13]                  0            -0               
   147 cmax[1,14]                 13            -0               
   148 cmax[1,15]                 13            -0               
   149 cmax[1,16]                 13            -0               
   150 cmax[1,17]                 13            -0               
   151 cmax[1,18]                 13            -0               
   152 cmax[1,19]                 13            -0               
   153 cmax[1,20]                 13            -0               
   154 cmax[2,1]                  13            -0               
   155 cmax[2,2]                  11            -0               
   156 cmax[2,3]                  10            -0               
   157 cmax[2,4]                   9            -0               
   158 cmax[2,5]                   8            -0               
   159 cmax[2,6]                   7            -0               
   160 cmax[2,7]                  13            -0               
   161 cmax[2,8]                  13            -0               
   162 cmax[2,9]                  13            -0               
   163 cmax[2,10]                 13            -0               
   164 cmax[2,11]                 13            -0               
   165 cmax[2,12]                 13            -0               
   166 cmax[2,13]                 13            -0               
   167 cmax[2,14]                 13            -0               
   168 cmax[2,15]                 13            -0               
   169 cmax[2,16]                 13            -0               
   170 cmax[2,17]                 13            -0               
   171 cmax[2,18]                 13            -0               
   172 cmax[2,19]                 13            -0               
   173 cmax[2,20]                 13            -0               
   174 cmax[3,1]                  13            -0               
   175 cmax[3,2]                  13            -0               
   176 cmax[3,3]                  13            -0               
   177 cmax[3,4]                  13            -0               
   178 cmax[3,5]                  13            -0               
   179 cmax[3,6]                  13            -0               
   180 cmax[3,7]                  13            -0               
   181 cmax[3,8]                  13            -0               
   182 cmax[3,9]                   4            -0               
   183 cmax[3,10]                  3            -0               
   184 cmax[3,11]                  2            -0               
   185 cmax[3,12]                  1            -0               
   186 cmax[3,13]                 13            -0               
   187 cmax[3,14]                 13            -0               
   188 cmax[3,15]                 13            -0               
   189 cmax[3,16]                 13            -0               
   190 cmax[3,17]                 13            -0               
   191 cmax[3,18]                 13            -0               
   192 cmax[3,19]                 13            -0               
   193 cmax[3,20]                 13            -0               
   194 cmax[4,1]                  12            -0               
   195 cmax[4,2]                  13            -0               
   196 cmax[4,3]                  13            -0               
   197 cmax[4,4]                  13            -0               
   198 cmax[4,5]                  13            -0               
   199 cmax[4,6]                  13            -0               
   200 cmax[4,7]                  13            -0               
   201 cmax[4,8]                  13            -0               
   202 cmax[4,9]                  13            -0               
   203 cmax[4,10]                 13            -0               
   204 cmax[4,11]                 13            -0               
   205 cmax[4,12]                 13            -0               
   206 cmax[4,13]                 13            -0               
   207 cmax[4,14]                 13            -0               
   208 cmax[4,15]                 13            -0               
   209 cmax[4,16]                 13            -0               
   210 cmax[4,17]                 13            -0               
   211 cmax[4,18]                 13            -0               
   212 cmax[4,19]                 13            -0               
   213 cmax[4,20]                 13            -0               
   214 cmax[5,1]                  13            -0               
   215 cmax[5,2]                  13            -0               
   216 cmax[5,3]                  13            -0               
   217 cmax[5,4]                  13            -0               
   218 cmax[5,5]                  13            -0               
   219 cmax[5,6]                  13            -0               
   220 cmax[5,7]                   6            -0               
   221 cmax[5,8]                   5            -0               
   222 cmax[5,9]                  13            -0               
   223 cmax[5,10]                 13            -0               
   224 cmax[5,11]                 13            -0               
   225 cmax[5,12]                 13            -0               
   226 cmax[5,13]                 13            -0               
   227 cmax[5,14]                 13            -0               
   228 cmax[5,15]                 13            -0               
   229 cmax[5,16]                 13            -0               
   230 cmax[5,17]                 13            -0               
   231 cmax[5,18]                 13            -0               
   232 cmax[5,19]                 13            -0               
   233 cmax[5,20]                 13            -0               
   234 cmax[6,1]                  13            -0               
   235 cmax[6,2]                  11            -0               
   236 cmax[6,3]                  10            -0               
   237 cmax[6,4]                  13            -0               
   238 cmax[6,5]                  13            -0               
   239 cmax[6,6]                  13            -0               
   240 cmax[6,7]                  13            -0               
   241 cmax[6,8]                  13            -0               
   242 cmax[6,9]                  13            -0               
   243 cmax[6,10]                 13            -0               
   244 cmax[6,11]                 13            -0               
   245 cmax[6,12]                 13            -0               
   246 cmax[6,13]                 13            -0               
   247 cmax[6,14]                 13            -0               
   248 cmax[6,15]                 13            -0               
   249 cmax[6,16]                 13            -0               
   250 cmax[6,17]                 13            -0               
   251 cmax[6,18]                 13            -0               
   252 cmax[6,19]                 13            -0               
   253 cmax[6,20]                 13            -0               
   254 cmax[7,1]                  13            -0               
   255 cmax[7,2]                  13            -0               
   256 cmax[7,3]                  13            -0               
   257 cmax[7,4]                   9            -0               
   258 cmax[7,5]                   8            -0               
   259 cmax[7,6]                   7            -0               
   260 cmax[7,7]                   6            -0               
   261 cmax[7,8]                   5            -0               
   262 cmax[7,9]                  13            -0               
   263 cmax[7,10]                 13            -0               
   264 cmax[7,11]                 13            -0               
   265 cmax[7,12]                 13            -0               
   266 cmax[7,13]                 13            -0               
   267 cmax[7,14]                 13            -0               
   268 cmax[7,15]                 13            -0               
   269 cmax[7,16]                 13            -0               
   270 cmax[7,17]                 13            -0               
   271 cmax[7,18]                 13            -0               
   272 cmax[7,19]                 13            -0               
   273 cmax[7,20]                 13            -0               
   274 ressource[1,1]
                                   2                           6 
   275 ressource[1,2]
                                   6                           6 
   276 ressource[1,3]
                                   6                           6 
   277 ressource[1,4]
                                   5                           6 
   278 ressource[1,5]
                                   5                           6 
   279 ressource[1,6]
                                   5                           6 
   280 ressource[1,7]
                                   5                           6 
   281 ressource[1,8]
                                   5                           6 
   282 ressource[1,9]
                                   4                           6 
   283 ressource[1,10]
                                   4                           6 
   284 ressource[1,11]
                                   4                           6 
   285 ressource[1,12]
                                   4                           6 
   286 ressource[1,13]
                                   1                           6 
   287 ressource[1,14]
                                   0                           6 
   288 ressource[1,15]
                                   0                           6 
   289 ressource[1,16]
                                   0                           6 
   290 ressource[1,17]
                                   0                           6 
   291 ressource[1,18]
                                   0                           6 
   292 ressource[1,19]
                                   0                           6 
   293 ressource[1,20]
                                   0                           6 
   294 ressource[2,1]
                                   8                           8 
   295 ressource[2,2]
                                   6                           8 
   296 ressource[2,3]
                                   6                           8 
   297 ressource[2,4]
                                   7                           8 
   298 ressource[2,5]
                                   7                           8 
   299 ressource[2,6]
                                   7                           8 
   300 ressource[2,7]
                                   6                           8 
   301 ressource[2,8]
                                   6                           8 
   302 ressource[2,9]
                                   5                           8 
   303 ressource[2,10]
                                   5                           8 
   304 ressource[2,11]
                                   5                           8 
   305 ressource[2,12]
                                   5                           8 
   306 ressource[2,13]
                                   6                           8 
   307 ressource[2,14]
                                   0                           8 
   308 ressource[2,15]
                                   0                           8 
   309 ressource[2,16]
                                   0                           8 
   310 ressource[2,17]
                                   0                           8 
   311 ressource[2,18]
                                   0                           8 
   312 ressource[2,19]
                                   0                           8 
   313 ressource[2,20]
                                   0                           8 
   314 ressource[3,1]
                                   1                          18 
   315 ressource[3,2]
                                   8                          18 
   316 ressource[3,3]
                                   8                          18 
   317 ressource[3,4]
                                  15                          18 
   318 ressource[3,5]
                                  15                          18 
   319 ressource[3,6]
                                  15                          18 
   320 ressource[3,7]
                                  16                          18 
   321 ressource[3,8]
                                  16                          18 
   322 ressource[3,9]
                                   8                          18 
   323 ressource[3,10]
                                   8                          18 
   324 ressource[3,11]
                                   8                          18 
   325 ressource[3,12]
                                   8                          18 
   326 ressource[3,13]
                                   9                          18 
   327 ressource[3,14]
                                   0                          18 
   328 ressource[3,15]
                                   0                          18 
   329 ressource[3,16]
                                   0                          18 
   330 ressource[3,17]
                                   0                          18 
   331 ressource[3,18]
                                   0                          18 
   332 ressource[3,19]
                                   0                          18 
   333 ressource[3,20]
                                   0                          18 
   334 obj                        13                             

   No. Column name       Activity     Lower bound   Upper bound
------ ------------    ------------- ------------- -------------
     1 x[1,1]       *              0             0             1 
     2 x[1,2]       *              0             0             1 
     3 x[1,3]       *              0             0             1 
     4 x[1,4]       *              0             0             1 
     5 x[1,5]       *              0             0             1 
     6 x[1,6]       *              0             0             1 
     7 x[1,7]       *              0             0             1 
     8 x[1,8]       *              0             0             1 
     9 x[1,9]       *              0             0             1 
    10 x[1,10]      *              0             0             1 
    11 x[1,11]      *              0             0             1 
    12 x[1,12]      *              0             0             1 
    13 x[1,13]      *              1             0             1 
    14 x[1,14]      *              0             0             1 
    15 x[1,15]      *              0             0             1 
    16 x[1,16]      *              0             0             1 
    17 x[1,17]      *              0             0             1 
    18 x[1,18]      *              0             0             1 
    19 x[1,19]      *              0             0             1 
    20 x[1,20]      *              0             0             1 
    21 x[2,1]       *              0             0             1 
    22 x[2,2]       *              1             0             1 
    23 x[2,3]       *              1             0             1 
    24 x[2,4]       *              1             0             1 
    25 x[2,5]       *              1             0             1 
    26 x[2,6]       *              1             0             1 
    27 x[2,7]       *              0             0             1 
    28 x[2,8]       *              0             0             1 
    29 x[2,9]       *              0             0             1 
    30 x[2,10]      *              0             0             1 
    31 x[2,11]      *              0             0             1 
    32 x[2,12]      *              0             0             1 
    33 x[2,13]      *              0             0             1 
    34 x[2,14]      *              0             0             1 
    35 x[2,15]      *              0             0             1 
    36 x[2,16]      *              0             0             1 
    37 x[2,17]      *              0             0             1 
    38 x[2,18]      *              0             0             1 
    39 x[2,19]      *              0             0             1 
    40 x[2,20]      *              0             0             1 
    41 x[3,1]       *              0             0             1 
    42 x[3,2]       *              0             0             1 
    43 x[3,3]       *              0             0             1 
    44 x[3,4]       *              0             0             1 
    45 x[3,5]       *              0             0             1 
    46 x[3,6]       *              0             0             1 
    47 x[3,7]       *              0             0             1 
    48 x[3,8]       *              0             0             1 
    49 x[3,9]       *              1             0             1 
    50 x[3,10]      *              1             0             1 
    51 x[3,11]      *              1             0             1 
    52 x[3,12]      *              1             0             1 
    53 x[3,13]      *              0             0             1 
    54 x[3,14]      *              0             0             1 
    55 x[3,15]      *              0             0             1 
    56 x[3,16]      *              0             0             1 
    57 x[3,17]      *              0             0             1 
    58 x[3,18]      *              0             0             1 
    59 x[3,19]      *              0             0             1 
    60 x[3,20]      *              0             0             1 
    61 x[4,1]       *              1             0             1 
    62 x[4,2]       *              0             0             1 
    63 x[4,3]       *              0             0             1 
    64 x[4,4]       *              0             0             1 
    65 x[4,5]       *              0             0             1 
    66 x[4,6]       *              0             0             1 
    67 x[4,7]       *              0             0             1 
    68 x[4,8]       *              0             0             1 
    69 x[4,9]       *              0             0             1 
    70 x[4,10]      *              0             0             1 
    71 x[4,11]      *              0             0             1 
    72 x[4,12]      *              0             0             1 
    73 x[4,13]      *              0             0             1 
    74 x[4,14]      *              0             0             1 
    75 x[4,15]      *              0             0             1 
    76 x[4,16]      *              0             0             1 
    77 x[4,17]      *              0             0             1 
    78 x[4,18]      *              0             0             1 
    79 x[4,19]      *              0             0             1 
    80 x[4,20]      *              0             0             1 
    81 x[5,1]       *              0             0             1 
    82 x[5,2]       *              0             0             1 
    83 x[5,3]       *              0             0             1 
    84 x[5,4]       *              0             0             1 
    85 x[5,5]       *              0             0             1 
    86 x[5,6]       *              0             0             1 
    87 x[5,7]       *              1             0             1 
    88 x[5,8]       *              1             0             1 
    89 x[5,9]       *              0             0             1 
    90 x[5,10]      *              0             0             1 
    91 x[5,11]      *              0             0             1 
    92 x[5,12]      *              0             0             1 
    93 x[5,13]      *              0             0             1 
    94 x[5,14]      *              0             0             1 
    95 x[5,15]      *              0             0             1 
    96 x[5,16]      *              0             0             1 
    97 x[5,17]      *              0             0             1 
    98 x[5,18]      *              0             0             1 
    99 x[5,19]      *              0             0             1 
   100 x[5,20]      *              0             0             1 
   101 x[6,1]       *              0             0             1 
   102 x[6,2]       *              1             0             1 
   103 x[6,3]       *              1             0             1 
   104 x[6,4]       *              0             0             1 
   105 x[6,5]       *              0             0             1 
   106 x[6,6]       *              0             0             1 
   107 x[6,7]       *              0             0             1 
   108 x[6,8]       *              0             0             1 
   109 x[6,9]       *              0             0             1 
   110 x[6,10]      *              0             0             1 
   111 x[6,11]      *              0             0             1 
   112 x[6,12]      *              0             0             1 
   113 x[6,13]      *              0             0             1 
   114 x[6,14]      *              0             0             1 
   115 x[6,15]      *              0             0             1 
   116 x[6,16]      *              0             0             1 
   117 x[6,17]      *              0             0             1 
   118 x[6,18]      *              0             0             1 
   119 x[6,19]      *              0             0             1 
   120 x[6,20]      *              0             0             1 
   121 x[7,1]       *              0             0             1 
   122 x[7,2]       *              0             0             1 
   123 x[7,3]       *              0             0             1 
   124 x[7,4]       *              1             0             1 
   125 x[7,5]       *              1             0             1 
   126 x[7,6]       *              1             0             1 
   127 x[7,7]       *              1             0             1 
   128 x[7,8]       *              1             0             1 
   129 x[7,9]       *              0             0             1 
   130 x[7,10]      *              0             0             1 
   131 x[7,11]      *              0             0             1 
   132 x[7,12]      *              0             0             1 
   133 x[7,13]      *              0             0             1 
   134 x[7,14]      *              0             0             1 
   135 x[7,15]      *              0             0             1 
   136 x[7,16]      *              0             0             1 
   137 x[7,17]      *              0             0             1 
   138 x[7,18]      *              0             0             1 
   139 x[7,19]      *              0             0             1 
   140 x[7,20]      *              0             0             1 
   141 z                          13                             

Integer feasibility conditions:

KKT.PE: max.abs.err = 0.00e+00 on row 0
        max.rel.err = 0.00e+00 on row 0
        High quality

KKT.PB: max.abs.err = 0.00e+00 on row 0
        max.rel.err = 0.00e+00 on row 0
        High quality

End of output
